NAME: a280
COMMENT: Local search tour for a280 (2956.917525419356)
TYPE: TOUR
DIMENSION: 280
TOUR_SECTION: 1 2 242 243 241 240 239 238 237 236 235 234 233 232 231 246 245 244 247 248 249 256 255 252 250 251 230 229 228 227 226 225 224 223 222 219 218 215 214 211 212 213 216 217 220 221 203 204 205 206 208 207 210 209 253 254 257 258 259 260 277 276 275 274 273 272 261 262 263 264 265 266 267 268 269 270 134 135 136 137 138 139 140 141 142 143 144 200 202 201 196 195 194 192 193 197 198 199 145 146 147 148 149 150 178 179 180 181 176 177 151 152 156 153 155 154 129 130 131 132 133 18 19 20 21 128 127 126 125 124 123 122 121 120 119 157 158 159 160 175 174 107 105 106 173 170 172 171 164 163 162 161 182 183 184 185 187 186 191 190 189 188 165 166 167 168 100 99 101 169 102 103 104 108 109 89 90 91 92 93 98 97 96 95 94 80 81 82 79 76 78 77 75 74 73 72 71 70 69 68 58 57 56 55 54 53 52 51 50 49 48 47 46 45 44 59 62 63 64 67 66 65 85 84 83 88 112 110 111 114 113 87 86 116 115 117 118 61 60 43 42 41 40 39 38 37 36 35 34 33 32 31 30 29 28 27 26 22 25 23 24 17 16 271 15 14 13 12 11 10 8 9 7 6 5 4 278 279 3 280 -1
EOF